p cnf 560 709
-3  -1  -2  0
-5  3  -4  0
9  -7  -8  0
-11  -9  -10  0
17  -15  -16  0
-19  -17  18  0
-23  -21  -22  0
25  23  -24  0
29  -27  28  0
31  29  -30  0
33  -31  -32  0
35  -33  -34  0
-37  35  36  0
-39  37  38  0
43  41  -42  0
49  -47  48  0
53  51  52  0
-55  -53  -54  0
-57  55  -56  0
59  57  58  0
-61  -59  -60  0
-63  61  62  0
-65  -63  64  0
69  -67  68  0
-73  -71  72  0
-75  -73  -74  0
-77  75  -76  0
79  77  78  0
81  -79  -80  0
89  87  -88  0
91  -89  -90  0
93  -91  92  0
-95  93  94  0
97  95  96  0
99  -97  98  0
103  -101  -102  0
105  103  104  0
107  105  106  0
-113  111  -112  0
115  113  114  0
117  -115  116  0
125  -123  124  0
-127  125  126  0
129  -127  -128  0
-133  -131  132  0
-139  -137  -138  0
-143  -141  -142  0
145  143  144  0
147  145  -146  0
-149  -147  -148  0
151  -149  -150  0
153  -151  152  0
-155  153  -154  0
-157  155  156  0
-159  -157  -158  0
-161  159  -160  0
-163  161  162  0
169  -167  168  0
171  -169  -170  0
-173  171  -172  0
-179  -177  178  0
-181  -179  180  0
-183  -181  -182  0
185  -183  -184  0
191  189  190  0
-195  193  -194  0
199  -197  198  0
203  201  202  0
205  203  -204  0
207  -205  206  0
-213  211  -212  0
-215  213  214  0
-217  -215  -216  0
219  217  218  0
223  -221  222  0
-225  223  224  0
229  227  -228  0
235  -233  -234  0
-237  -235  -236  0
239  -237  238  0
243  241  -242  0
-247  245  -246  0
249  247  248  0
251  -249  250  0
253  -251  252  0
-255  253  -254  0
-257  -255  256  0
-259  -257  -258  0
-265  -263  -264  0
-267  265  266  0
-269  -267  -268  0
271  269  -270  0
273  271  272  0
275  273  -274  0
-279  277  -278  0
283  281  282  0
-287  -285  -286  0
-289  287  288  0
291  -289  290  0
295  -293  -294  0
299  297  298  0
-303  -301  302  0
-305  -303  304  0
311  -309  310  0
-315  313  -314  0
-317  -315  -316  0
-319  -317  318  0
329  327  -328  0
333  -331  332  0
337  -335  336  0
-339  -337  338  0
341  -339  340  0
343  -341  -342  0
-347  -345  -346  0
-349  -347  348  0
-357  -355  356  0
359  -357  358  0
-363  -361  -362  0
-367  -365  366  0
369  367  368  0
371  369  -370  0
-373  371  -372  0
375  -373  374  0
381  -379  -380  0
-383  -381  382  0
-387  385  386  0
-389  -387  388  0
391  -389  390  0
-393  391  392  0
-395  -393  -394  0
399  -397  -398  0
401  -399  -400  0
-403  -401  402  0
405  403  -404  0
407  405  406  0
409  407  -408  0
-413  411  412  0
417  415  416  0
421  -419  -420  0
423  -421  422  0
427  -425  426  0
431  -429  -430  0
435  433  434  0
437  -435  436  0
439  437  -438  0
-441  -439  -440  0
-445  443  -444  0
-447  445  446  0
451  449  450  0
-457  455  -456  0
459  457  458  0
-461  -459  -460  0
467  -465  466  0
469  -467  -468  0
473  471  -472  0
483  481  482  0
-485  483  484  0
491  489  -490  0
-493  -491  -492  0
495  493  -494  0
497  495  -496  0
503  -501  502  0
-505  503  -504  0
507  505  -506  0
-509  -507  508  0
513  -511  -512  0
-515  513  -514  0
517  -515  516  0
521  -519  520  0
525  -523  524  0
531  -529  -530  0
533  -531  532  0
-541  -539  -540  0
-551  -549  550  0
555  553  554  0
557  555  -556  0
559  -557  -558  0
-4  -3  2  0
-4  1  2  0
6  5  3  0
-8  7  6  0
-8  -7  5  0
8  5  -6  0
-10  -9  -8  0
-10  -7  8  0
-12  11  10  0
-12  -9  10  0
14  -13  11  0
14  -11  12  0
16  -15  14  0
-16  -15  -13  0
16  -13  14  0
-18  17  -16  0
-18  -17  15  0
-18  15  16  0
20  19  17  0
-20  -17  -18  0
-22  21  20  0
-22  -21  19  0
22  -19  -20  0
-24  -21  22  0
26  25  -24  0
-28  -27  26  0
30  -29  -28  0
-30  27  28  0
32  31  30  0
-32  -31  29  0
32  -29  -30  0
-34  33  32  0
34  33  -31  0
-36  -35  -34  0
-36  -35  33  0
-36  33  34  0
38  -37  36  0
38  37  35  0
40  39  38  0
40  39  -37  0
-42  -41  40  0
-42  -41  39  0
44  43  42  0
44  43  41  0
-44  41  -42  0
-46  45  43  0
-46  43  -44  0
-48  -47  46  0
-50  -49  48  0
50  49  47  0
50  47  -48  0
52  -51  50  0
52  -51  -49  0
-54  -53  -52  0
54  -53  -51  0
-54  51  -52  0
58  57  -56  0
58  57  55  0
60  59  58  0
-60  -59  57  0
-60  57  58  0
62  -61  60  0
-62  61  59  0
62  -59  60  0
64  -63  62  0
66  -63  64  0
70  67  68  0
72  -71  70  0
72  71  69  0
72  69  70  0
-74  73  -72  0
-74  -73  71  0
74  -71  -72  0
-76  -75  74  0
76  -75  73  0
-76  -73  -74  0
-78  77  -75  0
80  -79  -78  0
80  -79  77  0
-80  77  78  0
-82  -81  80  0
-82  79  80  0
84  83  -82  0
-84  -83  81  0
-86  85  84  0
-86  -83  84  0
88  87  -86  0
88  -87  -85  0
90  87  -88  0
-92  -91  -90  0
92  -89  90  0
94  -93  92  0
94  -93  91  0
96  93  94  0
-98  -97  96  0
-98  -97  95  0
-100  -99  97  0
100  -97  98  0
-102  101  -100  0
102  -99  -100  0
104  103  102  0
104  -103  -101  0
104  -101  -102  0
-106  -105  104  0
106  -105  103  0
-106  103  -104  0
108  107  106  0
108  107  -105  0
108  -105  -106  0
-110  109  108  0
110  -109  107  0
112  -111  109  0
114  -113  112  0
-114  113  111  0
-116  115  -114  0
-116  115  113  0
-116  113  -114  0
118  115  116  0
-120  117  -118  0
122  121  119  0
122  -119  -120  0
124  123  -121  0
124  -121  -122  0
-128  -127  126  0
130  -127  128  0
132  131  130  0
-134  -133  132  0
-134  -133  131  0
136  -135  -134  0
136  -135  133  0
-136  -133  -134  0
-138  137  136  0
140  137  138  0
142  -139  -140  0
-144  143  -142  0
-144  -143  -141  0
144  -141  -142  0
146  -145  143  0
146  143  144  0
148  -147  -146  0
148  147  -145  0
-148  -145  -146  0
150  149  -148  0
-150  -147  148  0
-152  151  -150  0
-152  -151  -149  0
-152  -149  -150  0
154  153  152  0
154  -153  151  0
-156  -155  154  0
156  -155  153  0
-158  157  156  0
-158  -157  -155  0
-158  -155  156  0
-160  -159  -157  0
160  -157  -158  0
162  -161  159  0
162  159  160  0
164  -163  161  0
164  161  -162  0
168  167  -165  0
-168  165  -166  0
170  169  167  0
170  -167  -168  0
-172  -171  170  0
-172  -171  169  0
172  169  170  0
174  -173  -171  0
-174  171  172  0
176  175  174  0
-178  -177  -176  0
-178  175  -176  0
180  179  -178  0
180  179  -177  0
180  -177  178  0
182  181  -180  0
-182  179  180  0
-184  183  -181  0
184  -181  182  0
186  185  184  0
186  -183  -184  0
188  187  -186  0
-188  -185  -186  0
192  189  190  0
194  -193  192  0
-194  -193  191  0
-196  193  -194  0
198  197  196  0
198  197  195  0
-198  -195  -196  0
200  -199  198  0
200  -199  -197  0
200  -197  198  0
202  201  -200  0
202  201  199  0
204  -203  -202  0
204  203  201  0
204  201  202  0
-206  205  -203  0
206  203  -204  0
208  -207  206  0
208  -207  205  0
208  205  206  0
210  209  -208  0
-212  211  -210  0
212  -211  -209  0
-214  213  -212  0
-214  -211  212  0
-216  215  -214  0
216  -215  -213  0
-216  -213  -214  0
218  217  -216  0
218  217  215  0
-220  219  218  0
-220  -217  -218  0
222  -221  219  0
-222  219  -220  0
-224  -223  222  0
-224  223  -221  0
-226  225  223  0
228  -227  -226  0
-228  227  225  0
228  225  226  0
230  229  -228  0
230  229  227  0
230  227  -228  0
232  231  -230  0
232  -231  -229  0
232  -229  230  0
234  -233  232  0
236  -235  -234  0
-236  -235  233  0
-238  -237  236  0
-240  -239  -238  0
-240  -239  -237  0
-242  241  240  0
-242  -239  240  0
-244  -243  242  0
-244  243  241  0
-244  -241  -242  0
246  -245  -244  0
248  -247  -245  0
-250  -249  247  0
-252  251  249  0
254  -251  -252  0
256  -255  253  0
-256  -253  254  0
-260  259  258  0
-260  259  257  0
260  257  -258  0
262  -261  -259  0
262  -259  260  0
-264  -263  262  0
-266  265  -264  0
-268  267  -266  0
-272  271  -270  0
274  273  -272  0
-274  271  -272  0
276  -275  274  0
-276  275  -273  0
-276  273  274  0
278  277  275  0
280  -279  278  0
-282  -281  -280  0
282  279  -280  0
284  283  -282  0
-284  283  -281  0
-284  281  -282  0
-286  -285  -284  0
-288  -287  -286  0
-288  287  285  0
-288  -285  -286  0
290  -287  288  0
292  291  -290  0
292  291  -289  0
292  289  290  0
-294  -293  291  0
-296  -295  294  0
-296  -293  -294  0
-298  -297  296  0
298  297  -295  0
-298  295  296  0
-300  -299  -297  0
-302  -301  -300  0
-302  -299  -300  0
-304  303  302  0
-304  303  -301  0
306  305  304  0
-306  -305  303  0
306  -303  304  0
308  -307  -306  0
308  307  -305  0
308  305  -306  0
-310  309  -307  0
-312  -311  310  0
312  311  309  0
-312  -309  -310  0
-314  -313  -312  0
316  -315  -314  0
-316  -313  314  0
-318  -317  -315  0
-318  -315  316  0
320  -319  318  0
-320  -319  317  0
-322  -321  -319  0
322  -319  320  0
-324  -323  -322  0
-324  323  321  0
324  321  -322  0
326  325  -324  0
-326  -325  -323  0
-328  -327  -326  0
-328  -327  -325  0
-330  -329  328  0
-330  -329  327  0
330  327  328  0
332  -329  330  0
-334  333  -332  0
-334  -333  -331  0
-334  331  332  0
336  335  -334  0
336  -333  334  0
338  337  336  0
-338  335  -336  0
-340  339  338  0
340  339  -337  0
-342  -341  -339  0
342  -339  340  0
-344  341  342  0
-346  345  344  0
346  343  344  0
348  347  -345  0
348  345  346  0
350  -349  348  0
-350  349  -347  0
352  -351  -350  0
-352  351  349  0
354  353  352  0
-354  351  -352  0
-356  -355  -353  0
-356  -353  -354  0
358  357  -355  0
-358  355  -356  0
-360  359  357  0
-362  -361  360  0
-362  359  -360  0
364  -363  362  0
364  363  -361  0
-364  361  -362  0
366  -365  363  0
-366  363  364  0
368  367  -366  0
-368  -367  365  0
368  365  -366  0
-370  369  368  0
-370  -369  367  0
-372  371  -369  0
-372  -369  -370  0
-374  373  372  0
374  -373  371  0
-378  -377  376  0
378  377  -375  0
-378  375  -376  0
-382  -381  -380  0
382  381  -379  0
384  -381  382  0
386  385  -384  0
-386  385  -383  0
-386  -383  -384  0
388  -387  -386  0
-388  -387  -385  0
-388  385  386  0
390  387  -388  0
392  389  -390  0
-394  -393  392  0
394  -391  -392  0
-396  -395  393  0
396  393  -394  0
400  397  -398  0
-402  401  -400  0
402  -399  -400  0
406  -403  404  0
408  407  -406  0
-408  407  -405  0
-410  409  -408  0
410  407  408  0
412  -411  -409  0
-414  413  411  0
-414  411  412  0
-416  -415  414  0
-416  413  -414  0
418  -417  -415  0
-418  415  416  0
-420  -419  -418  0
-420  -417  418  0
422  -421  -420  0
422  -419  -420  0
424  423  -421  0
-426  -425  -423  0
426  423  424  0
428  -427  -426  0
-430  429  -428  0
430  -429  -427  0
-432  -429  430  0
434  -433  -432  0
434  431  -432  0
436  -435  -433  0
436  -433  434  0
438  -437  -436  0
-438  -437  -435  0
-438  -435  -436  0
440  439  -437  0
440  -437  -438  0
-442  -441  439  0
-444  443  442  0
-444  443  -441  0
-444  -441  442  0
446  445  -444  0
-446  443  444  0
450  -447  448  0
452  451  450  0
-454  -453  451  0
-456  455  -453  0
456  -453  454  0
458  -457  456  0
-458  457  -455  0
458  455  -456  0
460  -459  -458  0
-460  -457  458  0
-462  -461  460  0
-462  461  -459  0
-464  463  461  0
464  461  -462  0
-466  -465  -464  0
466  465  463  0
-466  -463  -464  0
468  467  -465  0
470  469  468  0
470  -469  467  0
472  -469  -470  0
474  473  472  0
474  -471  472  0
-476  475  474  0
-476  475  473  0
478  477  -476  0
478  -477  -475  0
-478  -475  -476  0
-480  479  -478  0
-480  479  -477  0
-482  -481  -479  0
482  -479  480  0
484  -483  482  0
-484  -483  481  0
-484  481  -482  0
-486  -485  -484  0
486  -483  -484  0
-488  -487  486  0
488  487  -485  0
488  -485  486  0
-492  -491  -490  0
-492  491  -489  0
492  -489  490  0
-494  493  -491  0
494  491  -492  0
496  495  -494  0
-496  -495  -493  0
-496  -493  -494  0
498  -497  495  0
-498  495  -496  0
500  499  498  0
-500  -499  -497  0
-502  -501  499  0
-504  503  -502  0
-504  -503  -501  0
-508  -507  506  0
508  507  505  0
-508  -505  506  0
510  509  -508  0
510  -509  -507  0
510  -507  -508  0
-512  511  510  0
512  -509  -510  0
-514  513  512  0
-514  511  512  0
-516  515  513  0
516  -513  514  0
518  -517  516  0
-518  -517  -515  0
520  519  -518  0
520  519  517  0
520  517  -518  0
-522  -521  -519  0
-524  -523  -521  0
-526  -525  524  0
-526  523  524  0
528  527  -526  0
528  527  -525  0
530  -529  527  0
530  -527  528  0
532  531  -530  0
-532  -531  529  0
532  529  530  0
534  -533  532  0
534  533  531  0
-534  -531  532  0
-536  -535  534  0
536  -535  533  0
536  533  -534  0
538  537  535  0
-538  -535  -536  0
540  537  538  0
-542  541  -540  0
542  539  -540  0
544  -543  541  0
-546  -545  544  0
546  -545  -543  0
546  543  -544  0
548  547  -545  0
548  545  -546  0
550  549  548  0
550  549  547  0
-552  551  550  0
552  -551  -549  0
-552  549  550  0
-554  553  -552  0
554  551  -552  0
-556  555  -553  0
-558  557  -556  0
-558  -557  -555  0
-558  555  556  0
560  559  557  0
-560  557  -558  0
